# Solution for model r5_t18_m2_8 Batch Number: 4
# Finished Task: 16 / 18
# Makespan: 812.0, Total Distance: 379.0, Total Time: 0.8578
# R O S F Batch
0 0 5 0.0 0.0 -1
1 1 12 0.0 0.0 -1
2 2 20 0.0 0.0 -1
3 3 18 0.0 0.0 -1
4 4 10 0.0 0.0 -1
5 0 -1 755.0 779.0 3
6 3 -1 717.0 755.0 3
7 2 -1 779.0 812.0 3
8 4 9 513.0 533.0 1
9 4 19 586.0 614.0 2
10 4 14 406.0 441.0 0
11 3 6 533.0 567.0 2
12 1 -1 383.0 403.0 0
13 4 -1 687.0 717.0 3
14 4 8 479.0 513.0 0
15 2 7 557.0 582.0 2
16 -1 -1 -1.0 -1.0 3
17 2 15 513.0 536.0 0
18 3 11 284.0 320.0 0
19 4 13 638.0 670.0 3
20 2 21 372.0 406.0 0
21 2 17 419.0 448.0 0
22 -1 -1 -1.0 -1.0 3
